\ Model Staff Scheduling Problem
\ LP format - for model browsing. Use MPS format to capture full model detail.
Minimize
  x[0,0] + x[0,1] + x[0,2] + x[0,3] + x[0,4] + x[0,5] + x[0,6] + x[1,0]
   + x[1,1] + x[1,2] + x[1,3] + x[1,4] + x[1,5] + x[1,6] + x[2,0] + x[2,1]
   + x[2,2] + x[2,3] + x[2,4] + x[2,5] + x[2,6] + x[3,0] + x[3,1] + x[3,2]
   + x[3,3] + x[3,4] + x[3,5] + x[3,6] + x[4,0] + x[4,1] + x[4,2] + x[4,3]
   + x[4,4] + x[4,5] + x[4,6]
Subject To
 R0: x[0,0] + x[1,0] + x[2,0] + x[3,0] + x[4,0] >= 1
 R1: x[0,1] + x[1,1] + x[2,1] + x[3,1] + x[4,1] >= 2
 R2: x[0,2] + x[1,2] + x[2,2] + x[3,2] + x[4,2] >= 4
 R3: x[0,3] + x[1,3] + x[2,3] + x[3,3] + x[4,3] >= 2
 R4: x[0,4] + x[1,4] + x[2,4] + x[3,4] + x[4,4] >= 3
 R5: x[0,5] + x[1,5] + x[2,5] + x[3,5] + x[4,5] >= 5
 R6: x[0,6] + x[1,6] + x[2,6] + x[3,6] + x[4,6] >= 4
 R7: 4.98 x[0,0] + 6.92 x[0,1] + 7.4 x[0,2] + 4.98 x[0,3] + 7.88 x[0,4]
   + 6.14 x[0,5] + 5.86 x[0,6] <= 23.26
 R8: 4.98 x[1,0] + 6.92 x[1,1] + 7.4 x[1,2] + 4.98 x[1,3] + 7.88 x[1,4]
   + 6.14 x[1,5] + 5.86 x[1,6] <= 38.67
 R9: 4.98 x[2,0] + 6.92 x[2,1] + 7.4 x[2,2] + 4.98 x[2,3] + 7.88 x[2,4]
   + 6.14 x[2,5] + 5.86 x[2,6] <= 24.23
 R10: 4.98 x[3,0] + 6.92 x[3,1] + 7.4 x[3,2] + 4.98 x[3,3] + 7.88 x[3,4]
   + 6.14 x[3,5] + 5.86 x[3,6] <= 22.56
 R11: 4.98 x[4,0] + 6.92 x[4,1] + 7.4 x[4,2] + 4.98 x[4,3] + 7.88 x[4,4]
   + 6.14 x[4,5] + 5.86 x[4,6] <= 24.57
Bounds
End
